p cnf 185 724
-1 -33 0
-2 -33 0
1 2 33 0
1 2 -34 0
-1 -2 -34 0
-1 2 34 0
1 -2 34 0
33 -35 0
-3 -35 0
3 -33 35 0
3 -33 -36 0
-3 33 -36 0
3 33 36 0
-3 -33 36 0
35 -37 0
-4 -37 0
4 -35 37 0
4 -35 -38 0
-4 35 -38 0
4 35 38 0
-4 -35 38 0
37 -39 0
-5 -39 0
5 -37 39 0
5 -37 -40 0
-5 37 -40 0
5 37 40 0
-5 -37 40 0
39 -41 0
-6 -41 0
6 -39 41 0
6 -39 -42 0
-6 39 -42 0
6 39 42 0
-6 -39 42 0
41 -43 0
-7 -43 0
7 -41 43 0
7 -41 -44 0
-7 41 -44 0
7 41 44 0
-7 -41 44 0
43 -45 0
-8 -45 0
8 -43 45 0
8 -43 -46 0
-8 43 -46 0
8 43 46 0
-8 -43 46 0
6 -47 0
1 -47 0
-1 -6 47 0
-1 -6 -48 0
1 6 -48 0
1 -6 48 0
-1 6 48 0
-2 -7 49 0
-7 -47 49 0
-2 -47 49 0
2 7 -49 0
7 47 -49 0
2 47 -49 0
7 -49 -50 0
2 -49 -50 0
47 -49 -50 0
-7 49 50 0
-2 49 50 0
-47 49 50 0
-2 -7 -47 50 0
2 7 47 -50 0
-3 -8 51 0
-8 -49 51 0
-3 -49 51 0
3 8 -51 0
8 49 -51 0
3 49 -51 0
8 -51 -52 0
3 -51 -52 0
49 -51 -52 0
-8 51 52 0
-3 51 52 0
-49 51 52 0
-3 -8 -49 52 0
3 8 49 -52 0
4 -53 0
51 -53 0
-4 -51 53 0
-4 -51 -54 0
4 51 -54 0
-4 51 54 0
4 -51 54 0
5 -55 0
53 -55 0
-5 -53 55 0
-5 -53 -56 0
5 53 -56 0
-5 53 56 0
5 -53 56 0
6 -57 0
55 -57 0
-6 -55 57 0
-6 -55 -58 0
6 55 -58 0
-6 55 58 0
6 -55 58 0
7 -59 0
57 -59 0
-7 -57 59 0
-7 -57 -60 0
7 57 -60 0
-7 57 60 0
7 -57 60 0
8 -61 0
59 -61 0
-8 -59 61 0
-8 -59 -62 0
8 59 -62 0
-8 59 62 0
8 -59 62 0
-1 -63 0
-2 -63 0
1 2 63 0
1 2 -64 0
-1 -2 -64 0
-1 2 64 0
1 -2 64 0
63 -65 0
-3 -65 0
3 -63 65 0
3 -63 -66 0
-3 63 -66 0
3 63 66 0
-3 -63 66 0
65 -67 0
-4 -67 0
4 -65 67 0
4 -65 -68 0
-4 65 -68 0
4 65 68 0
-4 -65 68 0
67 -69 0
-5 -69 0
5 -67 69 0
5 -67 -70 0
-5 67 -70 0
5 67 70 0
-5 -67 70 0
69 -71 0
-48 -71 0
48 -69 71 0
48 -69 -72 0
-48 69 -72 0
48 69 72 0
-48 -69 72 0
71 -73 0
-50 -73 0
50 -71 73 0
50 -71 -74 0
-50 71 -74 0
50 71 74 0
-50 -71 74 0
73 -75 0
-52 -75 0
52 -73 75 0
52 -73 -76 0
-52 73 -76 0
52 73 76 0
-52 -73 76 0
75 -77 0
-54 -77 0
54 -75 77 0
54 -75 -78 0
-54 75 -78 0
54 75 78 0
-54 -75 78 0
77 -79 0
-56 -79 0
56 -77 79 0
56 -77 -80 0
-56 77 -80 0
56 77 80 0
-56 -77 80 0
79 -81 0
-58 -81 0
58 -79 81 0
58 -79 -82 0
-58 79 -82 0
58 79 82 0
-58 -79 82 0
81 -83 0
-60 -83 0
60 -81 83 0
60 -81 -84 0
-60 81 -84 0
60 81 84 0
-60 -81 84 0
83 -85 0
-62 -85 0
62 -83 85 0
62 -83 -86 0
-62 83 -86 0
62 83 86 0
-62 -83 86 0
85 -87 0
-61 -87 0
61 -85 87 0
61 -85 -88 0
-61 85 -88 0
61 85 88 0
-61 -85 88 0
-9 -89 0
-10 -89 0
9 10 89 0
9 10 -90 0
-9 -10 -90 0
-9 10 90 0
9 -10 90 0
89 -91 0
-11 -91 0
11 -89 91 0
11 -89 -92 0
-11 89 -92 0
11 89 92 0
-11 -89 92 0
91 -93 0
-12 -93 0
12 -91 93 0
12 -91 -94 0
-12 91 -94 0
12 91 94 0
-12 -91 94 0
93 -95 0
-13 -95 0
13 -93 95 0
13 -93 -96 0
-13 93 -96 0
13 93 96 0
-13 -93 96 0
95 -97 0
-14 -97 0
14 -95 97 0
14 -95 -98 0
-14 95 -98 0
14 95 98 0
-14 -95 98 0
97 -99 0
-15 -99 0
15 -97 99 0
15 -97 -100 0
-15 97 -100 0
15 97 100 0
-15 -97 100 0
99 -101 0
-16 -101 0
16 -99 101 0
16 -99 -102 0
-16 99 -102 0
16 99 102 0
-16 -99 102 0
11 -103 0
9 -103 0
-9 -11 103 0
-9 -11 -104 0
9 11 -104 0
9 -11 104 0
-9 11 104 0
-10 -12 105 0
-12 -103 105 0
-10 -103 105 0
10 12 -105 0
12 103 -105 0
10 103 -105 0
12 -105 -106 0
10 -105 -106 0
103 -105 -106 0
-12 105 106 0
-10 105 106 0
-103 105 106 0
-10 -12 -103 106 0
10 12 103 -106 0
-11 -13 107 0
-13 -105 107 0
-11 -105 107 0
11 13 -107 0
13 105 -107 0
11 105 -107 0
13 -107 -108 0
11 -107 -108 0
105 -107 -108 0
-13 107 108 0
-11 107 108 0
-105 107 108 0
-11 -13 -105 108 0
11 13 105 -108 0
-12 -14 109 0
-14 -107 109 0
-12 -107 109 0
12 14 -109 0
14 107 -109 0
12 107 -109 0
14 -109 -110 0
12 -109 -110 0
107 -109 -110 0
-14 109 110 0
-12 109 110 0
-107 109 110 0
-12 -14 -107 110 0
12 14 107 -110 0
-13 -15 111 0
-15 -109 111 0
-13 -109 111 0
13 15 -111 0
15 109 -111 0
13 109 -111 0
15 -111 -112 0
13 -111 -112 0
109 -111 -112 0
-15 111 112 0
-13 111 112 0
-109 111 112 0
-13 -15 -109 112 0
13 15 109 -112 0
-14 -16 113 0
-16 -111 113 0
-14 -111 113 0
14 16 -113 0
16 111 -113 0
14 111 -113 0
16 -113 -114 0
14 -113 -114 0
111 -113 -114 0
-16 113 114 0
-14 113 114 0
-111 113 114 0
-14 -16 -111 114 0
14 16 111 -114 0
15 -115 0
113 -115 0
-15 -113 115 0
-15 -113 -116 0
15 113 -116 0
-15 113 116 0
15 -113 116 0
16 -117 0
115 -117 0
-16 -115 117 0
-16 -115 -118 0
16 115 -118 0
-16 115 118 0
16 -115 118 0
108 -119 0
9 -119 0
-9 -108 119 0
-9 -108 -120 0
9 108 -120 0
9 -108 120 0
-9 108 120 0
-10 -110 121 0
-110 -119 121 0
-10 -119 121 0
10 110 -121 0
110 119 -121 0
10 119 -121 0
110 -121 -122 0
10 -121 -122 0
119 -121 -122 0
-110 121 122 0
-10 121 122 0
-119 121 122 0
-10 -110 -119 122 0
10 110 119 -122 0
-11 -112 123 0
-112 -121 123 0
-11 -121 123 0
11 112 -123 0
112 121 -123 0
11 121 -123 0
112 -123 -124 0
11 -123 -124 0
121 -123 -124 0
-112 123 124 0
-11 123 124 0
-121 123 124 0
-11 -112 -121 124 0
11 112 121 -124 0
-12 -114 125 0
-114 -123 125 0
-12 -123 125 0
12 114 -125 0
114 123 -125 0
12 123 -125 0
114 -125 -126 0
12 -125 -126 0
123 -125 -126 0
-114 125 126 0
-12 125 126 0
-123 125 126 0
-12 -114 -123 126 0
12 114 123 -126 0
-13 -116 127 0
-116 -125 127 0
-13 -125 127 0
13 116 -127 0
116 125 -127 0
13 125 -127 0
116 -127 -128 0
13 -127 -128 0
125 -127 -128 0
-116 127 128 0
-13 127 128 0
-125 127 128 0
-13 -116 -125 128 0
13 116 125 -128 0
-14 -118 129 0
-118 -127 129 0
-14 -127 129 0
14 118 -129 0
118 127 -129 0
14 127 -129 0
118 -129 -130 0
14 -129 -130 0
127 -129 -130 0
-118 129 130 0
-14 129 130 0
-127 129 130 0
-14 -118 -127 130 0
14 118 127 -130 0
-15 -117 131 0
-117 -129 131 0
-15 -129 131 0
15 117 -131 0
117 129 -131 0
15 129 -131 0
117 -131 -132 0
15 -131 -132 0
129 -131 -132 0
-117 131 132 0
-15 131 132 0
-129 131 132 0
-15 -117 -129 132 0
15 117 129 -132 0
16 -133 0
131 -133 0
-16 -131 133 0
-16 -131 -134 0
16 131 -134 0
-16 131 134 0
16 -131 134 0
-9 -135 0
-10 -135 0
9 10 135 0
9 10 -136 0
-9 -10 -136 0
-9 10 136 0
9 -10 136 0
135 -137 0
-104 -137 0
104 -135 137 0
104 -135 -138 0
-104 135 -138 0
104 135 138 0
-104 -135 138 0
137 -139 0
-106 -139 0
106 -137 139 0
106 -137 -140 0
-106 137 -140 0
106 137 140 0
-106 -137 140 0
139 -141 0
-120 -141 0
120 -139 141 0
120 -139 -142 0
-120 139 -142 0
120 139 142 0
-120 -139 142 0
141 -143 0
-122 -143 0
122 -141 143 0
122 -141 -144 0
-122 141 -144 0
122 141 144 0
-122 -141 144 0
143 -145 0
-124 -145 0
124 -143 145 0
124 -143 -146 0
-124 143 -146 0
124 143 146 0
-124 -143 146 0
145 -147 0
-126 -147 0
126 -145 147 0
126 -145 -148 0
-126 145 -148 0
126 145 148 0
-126 -145 148 0
147 -149 0
-128 -149 0
128 -147 149 0
128 -147 -150 0
-128 147 -150 0
128 147 150 0
-128 -147 150 0
149 -151 0
-130 -151 0
130 -149 151 0
130 -149 -152 0
-130 149 -152 0
130 149 152 0
-130 -149 152 0
151 -153 0
-132 -153 0
132 -151 153 0
132 -151 -154 0
-132 151 -154 0
132 151 154 0
-132 -151 154 0
153 -155 0
-134 -155 0
134 -153 155 0
134 -153 -156 0
-134 153 -156 0
134 153 156 0
-134 -153 156 0
155 -157 0
-133 -157 0
133 -155 157 0
133 -155 -158 0
-133 155 -158 0
133 155 158 0
-133 -155 158 0
2 -159 0
9 -159 0
-2 -9 159 0
-2 -9 -160 0
2 9 -160 0
-2 9 160 0
2 -9 160 0
-3 -10 161 0
-3 -159 161 0
-10 -159 161 0
3 10 -161 0
3 159 -161 0
10 159 -161 0
3 -161 -162 0
10 -161 -162 0
159 -161 -162 0
-3 161 162 0
-10 161 162 0
-159 161 162 0
-3 -10 -159 162 0
3 10 159 -162 0
-4 -104 163 0
-4 -161 163 0
-104 -161 163 0
4 104 -163 0
4 161 -163 0
104 161 -163 0
4 -163 -164 0
104 -163 -164 0
161 -163 -164 0
-4 163 164 0
-104 163 164 0
-161 163 164 0
-4 -104 -161 164 0
4 104 161 -164 0
-5 -106 165 0
-5 -163 165 0
-106 -163 165 0
5 106 -165 0
5 163 -165 0
106 163 -165 0
5 -165 -166 0
106 -165 -166 0
163 -165 -166 0
-5 165 166 0
-106 165 166 0
-163 165 166 0
-5 -106 -163 166 0
5 106 163 -166 0
-48 -120 167 0
-48 -165 167 0
-120 -165 167 0
48 120 -167 0
48 165 -167 0
120 165 -167 0
48 -167 -168 0
120 -167 -168 0
165 -167 -168 0
-48 167 168 0
-120 167 168 0
-165 167 168 0
-48 -120 -165 168 0
48 120 165 -168 0
-50 -122 169 0
-50 -167 169 0
-122 -167 169 0
50 122 -169 0
50 167 -169 0
122 167 -169 0
50 -169 -170 0
122 -169 -170 0
167 -169 -170 0
-50 169 170 0
-122 169 170 0
-167 169 170 0
-50 -122 -167 170 0
50 122 167 -170 0
-52 -124 171 0
-52 -169 171 0
-124 -169 171 0
52 124 -171 0
52 169 -171 0
124 169 -171 0
52 -171 -172 0
124 -171 -172 0
169 -171 -172 0
-52 171 172 0
-124 171 172 0
-169 171 172 0
-52 -124 -169 172 0
52 124 169 -172 0
-54 -126 173 0
-54 -171 173 0
-126 -171 173 0
54 126 -173 0
54 171 -173 0
126 171 -173 0
54 -173 -174 0
126 -173 -174 0
171 -173 -174 0
-54 173 174 0
-126 173 174 0
-171 173 174 0
-54 -126 -171 174 0
54 126 171 -174 0
-56 -128 175 0
-56 -173 175 0
-128 -173 175 0
56 128 -175 0
56 173 -175 0
128 173 -175 0
56 -175 -176 0
128 -175 -176 0
173 -175 -176 0
-56 175 176 0
-128 175 176 0
-173 175 176 0
-56 -128 -173 176 0
56 128 173 -176 0
-58 -130 177 0
-58 -175 177 0
-130 -175 177 0
58 130 -177 0
58 175 -177 0
130 175 -177 0
58 -177 -178 0
130 -177 -178 0
175 -177 -178 0
-58 177 178 0
-130 177 178 0
-175 177 178 0
-58 -130 -175 178 0
58 130 175 -178 0
-60 -132 179 0
-60 -177 179 0
-132 -177 179 0
60 132 -179 0
60 177 -179 0
132 177 -179 0
60 -179 -180 0
132 -179 -180 0
177 -179 -180 0
-60 179 180 0
-132 179 180 0
-177 179 180 0
-60 -132 -177 180 0
60 132 177 -180 0
-62 -134 181 0
-62 -179 181 0
-134 -179 181 0
62 134 -181 0
62 179 -181 0
134 179 -181 0
62 -181 -182 0
134 -181 -182 0
179 -181 -182 0
-62 181 182 0
-134 181 182 0
-179 181 182 0
-62 -134 -179 182 0
62 134 179 -182 0
-61 -133 183 0
-61 -181 183 0
-133 -181 183 0
61 133 -183 0
61 181 -183 0
133 181 -183 0
61 -183 -184 0
133 -183 -184 0
181 -183 -184 0
-61 183 184 0
-133 183 184 0
-181 183 184 0
-61 -133 -181 184 0
61 133 181 -184 0
1 -185 0
160 -185 0
162 -185 0
-164 -185 0
-166 -185 0
168 -185 0
-170 -185 0
-172 -185 0
-174 -185 0
-176 -185 0
-178 -185 0
-180 -185 0
-182 -185 0
-183 -185 0
-184 -185 0
-1 -160 -162 164 166 -168 170 172 174 176 178 180 182 183 184 185 0
185 0
c main::$tmp::return_value_nondet_char!0@1#1 17 18 19 20 21 22 23 24
c symex::nondet1 9 10 11 12 13 14 15 16
c symex::nondet0 1 2 3 4 5 6 7 8
c main::$tmp::return_value_nondet_char$0!0@1#2 9 10 11 12 13 14 15 16
c __CPROVER_rounding_mode!0#1 FALSE FALSE FALSE FALSE FALSE FALSE FALSE FALSE FALSE FALSE FALSE FALSE FALSE FALSE FALSE FALSE FALSE FALSE FALSE FALSE FALSE FALSE FALSE FALSE FALSE FALSE FALSE FALSE FALSE FALSE FALSE FALSE
c main::$tmp::return_value_nondet_char$0!0@1#1 25 26 27 28 29 30 31 32
c __CPROVER_memory_leak#1 FALSE FALSE FALSE FALSE FALSE FALSE FALSE FALSE FALSE FALSE FALSE FALSE FALSE FALSE FALSE FALSE FALSE FALSE FALSE FALSE FALSE FALSE FALSE FALSE FALSE FALSE FALSE FALSE FALSE FALSE FALSE FALSE FALSE FALSE FALSE FALSE FALSE FALSE FALSE FALSE FALSE FALSE FALSE FALSE FALSE FALSE FALSE FALSE FALSE FALSE FALSE FALSE FALSE FALSE FALSE FALSE FALSE FALSE FALSE FALSE FALSE FALSE FALSE FALSE
c __CPROVER_max_malloc_size#1 FALSE FALSE FALSE FALSE FALSE FALSE FALSE FALSE FALSE FALSE FALSE FALSE FALSE FALSE FALSE FALSE FALSE FALSE FALSE FALSE FALSE FALSE FALSE FALSE FALSE FALSE FALSE FALSE FALSE FALSE FALSE FALSE FALSE FALSE FALSE FALSE FALSE FALSE FALSE FALSE FALSE FALSE FALSE FALSE FALSE FALSE FALSE FALSE FALSE FALSE FALSE FALSE FALSE FALSE FALSE TRUE FALSE FALSE FALSE FALSE FALSE FALSE FALSE FALSE
c __CPROVER_deallocated#1 FALSE FALSE FALSE FALSE FALSE FALSE FALSE FALSE FALSE FALSE FALSE FALSE FALSE FALSE FALSE FALSE FALSE FALSE FALSE FALSE FALSE FALSE FALSE FALSE FALSE FALSE FALSE FALSE FALSE FALSE FALSE FALSE FALSE FALSE FALSE FALSE FALSE FALSE FALSE FALSE FALSE FALSE FALSE FALSE FALSE FALSE FALSE FALSE FALSE FALSE FALSE FALSE FALSE FALSE FALSE FALSE FALSE FALSE FALSE FALSE FALSE FALSE FALSE FALSE
c main::$tmp::return_value_nondet_char!0@1#2 1 2 3 4 5 6 7 8
c __CPROVER_dead_object#1 FALSE FALSE FALSE FALSE FALSE FALSE FALSE FALSE FALSE FALSE FALSE FALSE FALSE FALSE FALSE FALSE FALSE FALSE FALSE FALSE FALSE FALSE FALSE FALSE FALSE FALSE FALSE FALSE FALSE FALSE FALSE FALSE FALSE FALSE FALSE FALSE FALSE FALSE FALSE FALSE FALSE FALSE FALSE FALSE FALSE FALSE FALSE FALSE FALSE FALSE FALSE FALSE FALSE FALSE FALSE FALSE FALSE FALSE FALSE FALSE FALSE FALSE FALSE FALSE
